jobs  (incl. supersource/sink ):	102
RESOURCES
- renewable                 : 2 R
- nonrenewable              : 2 N
- doubly constrained        : 0 D
************************************************************************
PRECEDENCE RELATIONS:
jobnr.    #modes  #successors   successors
1	1	6		2 4 5 6 7 9 
2	3	7		24 21 15 14 13 10 3 
3	3	5		18 16 12 11 8 
4	3	9		39 33 27 24 20 17 16 11 10 
5	3	7		39 33 25 22 21 16 12 
6	3	6		31 26 22 21 18 16 
7	3	8		33 31 26 25 23 22 21 19 
8	3	7		39 33 31 25 22 19 17 
9	3	3		39 33 11 
10	3	6		31 30 29 26 25 23 
11	3	5		31 26 25 22 19 
12	3	5		34 27 26 23 20 
13	3	7		47 34 32 31 30 29 23 
14	3	5		44 39 31 29 19 
15	3	7		42 40 35 31 28 26 25 
16	3	3		29 23 19 
17	3	5		34 30 29 28 26 
18	3	4		40 39 34 19 
19	3	5		47 43 32 30 28 
20	3	5		47 44 32 31 30 
21	3	3		42 29 27 
22	3	10		51 48 47 46 45 44 40 38 37 34 
23	3	6		51 44 43 42 40 28 
24	3	7		51 46 43 42 40 37 32 
25	3	8		51 48 47 46 45 44 43 34 
26	3	5		47 46 44 38 32 
27	3	4		46 43 37 32 
28	3	5		48 46 38 37 36 
29	3	6		55 51 48 46 40 37 
30	3	5		59 48 42 37 35 
31	3	5		63 48 46 45 37 
32	3	4		55 48 45 36 
33	3	6		59 50 45 44 42 41 
34	3	3		57 55 36 
35	3	6		63 57 54 51 50 41 
36	3	5		63 59 58 50 41 
37	3	5		58 57 54 50 41 
38	3	7		63 58 57 55 54 50 49 
39	3	7		69 66 59 55 52 50 46 
40	3	5		69 63 52 50 49 
41	3	6		69 66 62 61 52 49 
42	3	5		63 62 57 53 52 
43	3	5		69 66 58 55 53 
44	3	7		75 74 63 62 61 60 56 
45	3	5		75 74 66 61 52 
46	3	3		61 53 49 
47	3	10		75 73 71 69 65 64 63 62 61 60 
48	3	3		75 56 54 
49	3	4		75 74 60 56 
50	3	3		71 61 53 
51	3	3		66 61 56 
52	3	2		60 56 
53	3	6		75 73 67 65 64 60 
54	3	5		73 64 62 61 60 
55	3	5		75 71 65 62 61 
56	3	6		73 71 68 67 65 64 
57	3	6		86 75 71 70 68 66 
58	3	3		71 65 61 
59	3	4		86 68 67 64 
60	3	7		86 85 81 80 72 70 68 
61	3	4		85 80 76 67 
62	3	3		86 68 67 
63	3	3		85 80 67 
64	3	6		85 81 80 76 72 70 
65	3	9		89 86 85 84 83 82 79 78 77 
66	3	4		80 79 77 72 
67	3	3		77 72 70 
68	3	8		101 89 84 83 82 79 78 76 
69	3	8		101 89 88 85 84 83 81 76 
70	3	7		101 100 97 89 84 79 78 
71	3	7		99 98 97 89 88 82 77 
72	3	6		97 89 84 83 82 78 
73	3	7		101 98 97 89 80 79 78 
74	3	10		99 98 97 96 95 92 90 89 88 87 
75	3	6		101 95 88 85 84 81 
76	3	11		100 99 98 97 96 95 94 93 92 90 87 
77	3	5		101 100 95 94 81 
78	3	7		99 96 94 92 90 88 87 
79	3	5		95 93 92 90 87 
80	3	5		96 94 92 91 88 
81	3	4		93 92 90 87 
82	3	4		96 94 90 87 
83	3	4		100 95 94 91 
84	3	3		98 92 90 
85	3	3		97 93 90 
86	3	3		94 92 90 
87	3	1		91 
88	3	1		93 
89	3	1		94 
90	3	1		102 
91	3	1		102 
92	3	1		102 
93	3	1		102 
94	3	1		102 
95	3	1		102 
96	3	1		102 
97	3	1		102 
98	3	1		102 
99	3	1		102 
100	3	1		102 
101	3	1		102 
102	1	0		
************************************************************************
REQUESTS/DURATIONS
jobnr.	mode	dur	R1	R2	N1	N2	
------------------------------------------------------------------------
1	1	0	0	0	0	0	
2	1	5	3	0	5	6	
	2	7	0	3	5	4	
	3	8	3	0	5	2	
3	1	3	4	0	4	1	
	2	5	2	0	4	1	
	3	9	1	0	4	1	
4	1	1	3	0	4	8	
	2	4	0	2	3	7	
	3	8	1	0	3	7	
5	1	1	0	4	8	2	
	2	2	0	2	6	2	
	3	10	1	0	2	2	
6	1	1	0	1	8	9	
	2	7	3	0	7	4	
	3	10	3	0	7	2	
7	1	3	4	0	2	5	
	2	7	0	3	2	3	
	3	8	0	1	1	3	
8	1	1	0	4	5	5	
	2	3	0	3	2	5	
	3	8	2	0	1	5	
9	1	2	0	2	5	4	
	2	7	1	0	5	2	
	3	10	0	1	5	2	
10	1	3	0	3	6	7	
	2	6	2	0	4	5	
	3	8	1	0	1	5	
11	1	1	0	3	7	7	
	2	4	2	0	4	5	
	3	8	2	0	4	2	
12	1	3	5	0	6	6	
	2	5	0	1	5	6	
	3	9	1	0	4	6	
13	1	3	1	0	8	8	
	2	8	1	0	6	7	
	3	9	0	2	4	6	
14	1	2	0	3	7	4	
	2	6	4	0	5	4	
	3	7	4	0	4	4	
15	1	3	2	0	4	6	
	2	6	0	4	3	4	
	3	7	2	0	2	3	
16	1	3	0	2	9	8	
	2	4	0	2	9	6	
	3	8	0	1	8	2	
17	1	3	4	0	3	1	
	2	8	0	2	3	1	
	3	9	4	0	2	1	
18	1	2	1	0	1	4	
	2	9	0	2	1	3	
	3	10	1	0	1	1	
19	1	1	0	1	6	7	
	2	3	3	0	5	7	
	3	6	2	0	4	5	
20	1	3	0	4	8	9	
	2	5	0	3	7	7	
	3	6	0	3	6	4	
21	1	6	0	4	7	6	
	2	8	4	0	6	6	
	3	10	0	2	4	4	
22	1	2	5	0	5	8	
	2	3	2	0	5	7	
	3	4	2	0	5	6	
23	1	2	0	4	4	9	
	2	2	2	0	4	8	
	3	6	0	1	3	7	
24	1	1	3	0	9	3	
	2	2	0	3	9	3	
	3	7	2	0	9	3	
25	1	3	4	0	9	8	
	2	5	3	0	6	7	
	3	8	0	1	3	4	
26	1	1	0	5	3	3	
	2	4	2	0	2	3	
	3	10	1	0	2	2	
27	1	2	0	2	9	9	
	2	7	0	1	8	9	
	3	8	0	1	7	9	
28	1	2	2	0	4	5	
	2	4	2	0	3	4	
	3	10	0	3	2	4	
29	1	1	0	4	3	9	
	2	1	1	0	2	8	
	3	6	1	0	1	8	
30	1	1	5	0	10	7	
	2	3	0	2	6	4	
	3	6	0	1	6	4	
31	1	3	0	3	3	4	
	2	4	0	3	1	3	
	3	7	0	3	1	2	
32	1	8	0	1	8	9	
	2	9	0	1	4	8	
	3	9	4	0	3	8	
33	1	5	4	0	7	8	
	2	6	0	3	4	6	
	3	8	2	0	2	6	
34	1	1	1	0	8	4	
	2	3	0	3	5	4	
	3	5	0	3	3	4	
35	1	1	0	3	4	3	
	2	7	0	3	4	2	
	3	7	2	0	4	2	
36	1	3	4	0	8	9	
	2	5	3	0	6	4	
	3	6	3	0	5	2	
37	1	5	2	0	9	8	
	2	7	0	4	7	4	
	3	10	0	3	5	4	
38	1	1	0	3	5	4	
	2	2	0	3	5	3	
	3	6	2	0	4	2	
39	1	1	0	3	6	9	
	2	5	3	0	6	8	
	3	6	1	0	6	8	
40	1	4	0	4	9	6	
	2	4	4	0	9	4	
	3	7	4	0	8	3	
41	1	1	0	5	9	6	
	2	5	4	0	5	6	
	3	6	3	0	4	6	
42	1	5	0	4	6	5	
	2	9	4	0	4	4	
	3	10	4	0	3	4	
43	1	6	0	1	1	6	
	2	10	0	1	1	5	
	3	10	3	0	1	5	
44	1	1	0	1	9	6	
	2	7	0	1	5	5	
	3	8	4	0	1	1	
45	1	3	3	0	7	7	
	2	7	0	1	6	6	
	3	10	2	0	6	6	
46	1	6	3	0	9	7	
	2	8	2	0	6	5	
	3	8	0	3	4	2	
47	1	4	3	0	7	8	
	2	7	3	0	7	4	
	3	8	3	0	6	4	
48	1	2	3	0	9	9	
	2	3	2	0	9	8	
	3	7	2	0	9	6	
49	1	3	0	2	4	6	
	2	4	0	2	3	6	
	3	5	1	0	2	4	
50	1	8	0	1	9	2	
	2	9	0	1	7	2	
	3	9	4	0	5	1	
51	1	3	4	0	7	8	
	2	4	3	0	6	6	
	3	6	2	0	3	4	
52	1	2	0	1	6	9	
	2	5	0	1	5	6	
	3	6	0	1	3	4	
53	1	5	0	3	6	7	
	2	9	3	0	5	5	
	3	10	3	0	5	4	
54	1	5	0	4	9	10	
	2	5	4	0	4	10	
	3	10	0	2	4	10	
55	1	5	3	0	5	7	
	2	8	3	0	4	6	
	3	10	3	0	4	5	
56	1	1	0	5	3	8	
	2	9	0	5	3	7	
	3	10	0	5	3	6	
57	1	7	5	0	8	6	
	2	8	0	2	7	6	
	3	10	3	0	3	4	
58	1	1	0	4	6	2	
	2	4	0	4	3	1	
	3	8	1	0	1	1	
59	1	1	0	5	8	1	
	2	5	1	0	7	1	
	3	5	0	3	6	1	
60	1	1	0	4	7	9	
	2	4	5	0	4	6	
	3	8	5	0	3	3	
61	1	7	3	0	8	8	
	2	9	0	1	6	7	
	3	10	0	1	5	7	
62	1	4	3	0	4	6	
	2	8	0	3	3	5	
	3	9	0	3	2	5	
63	1	1	0	5	9	7	
	2	4	3	0	9	7	
	3	7	3	0	8	7	
64	1	4	0	3	7	10	
	2	8	2	0	5	8	
	3	9	2	0	4	6	
65	1	2	5	0	8	8	
	2	3	5	0	8	7	
	3	4	5	0	6	6	
66	1	6	0	4	10	8	
	2	8	0	3	7	5	
	3	10	2	0	5	2	
67	1	4	0	3	2	5	
	2	5	0	2	2	5	
	3	9	0	1	2	4	
68	1	4	0	3	6	7	
	2	5	0	2	4	6	
	3	10	1	0	4	3	
69	1	1	0	5	6	10	
	2	3	0	4	4	8	
	3	4	0	3	4	6	
70	1	1	0	3	10	7	
	2	7	0	3	7	5	
	3	8	0	3	6	4	
71	1	5	4	0	8	6	
	2	7	2	0	5	6	
	3	8	0	4	4	5	
72	1	4	0	2	9	5	
	2	6	5	0	9	4	
	3	8	0	1	9	2	
73	1	1	1	0	7	8	
	2	5	1	0	5	4	
	3	5	0	5	3	3	
74	1	3	2	0	10	6	
	2	3	0	1	9	6	
	3	4	2	0	9	5	
75	1	1	2	0	7	9	
	2	2	0	1	5	9	
	3	6	2	0	4	8	
76	1	2	0	2	3	8	
	2	3	0	2	3	5	
	3	5	4	0	3	4	
77	1	1	0	4	3	9	
	2	2	1	0	2	8	
	3	6	1	0	2	6	
78	1	3	4	0	6	8	
	2	7	0	3	4	7	
	3	9	2	0	1	3	
79	1	2	4	0	4	6	
	2	6	2	0	4	5	
	3	9	1	0	4	4	
80	1	1	5	0	5	2	
	2	7	0	2	3	2	
	3	9	3	0	3	2	
81	1	6	3	0	8	5	
	2	9	3	0	7	4	
	3	10	2	0	6	3	
82	1	2	3	0	5	7	
	2	10	3	0	5	6	
	3	10	0	1	4	4	
83	1	4	4	0	4	8	
	2	6	3	0	2	9	
	3	7	3	0	2	8	
84	1	3	0	3	10	7	
	2	5	0	3	9	5	
	3	9	2	0	9	5	
85	1	3	0	5	2	9	
	2	9	0	5	2	4	
	3	10	0	5	1	2	
86	1	6	4	0	4	3	
	2	7	2	0	4	3	
	3	9	2	0	4	2	
87	1	4	0	3	6	8	
	2	8	3	0	5	7	
	3	9	3	0	4	4	
88	1	4	4	0	10	8	
	2	6	0	3	10	7	
	3	10	4	0	10	5	
89	1	1	4	0	2	7	
	2	7	3	0	2	5	
	3	8	2	0	2	3	
90	1	5	0	5	4	6	
	2	7	0	4	3	5	
	3	9	3	0	3	1	
91	1	4	2	0	10	6	
	2	7	0	4	9	4	
	3	9	1	0	8	2	
92	1	6	0	4	8	8	
	2	8	0	4	6	7	
	3	9	1	0	5	7	
93	1	2	0	3	10	9	
	2	8	0	2	9	7	
	3	10	2	0	7	6	
94	1	1	0	3	10	3	
	2	3	0	3	7	2	
	3	7	0	2	6	1	
95	1	3	1	0	8	9	
	2	8	1	0	5	7	
	3	9	0	1	3	6	
96	1	6	5	0	9	7	
	2	9	5	0	9	6	
	3	9	0	3	9	6	
97	1	1	0	2	5	7	
	2	4	3	0	5	7	
	3	5	0	1	1	6	
98	1	4	0	3	8	4	
	2	6	1	0	3	4	
	3	10	1	0	2	2	
99	1	3	0	1	9	9	
	2	4	2	0	9	9	
	3	9	1	0	7	8	
100	1	6	3	0	6	7	
	2	7	3	0	5	7	
	3	10	0	4	5	7	
101	1	4	1	0	5	5	
	2	6	0	1	5	4	
	3	8	1	0	5	4	
102	1	0	0	0	0	0	
************************************************************************

 RESOURCE AVAILABILITIES 
	R 1	R 2	N 1	N 2
	11	10	475	480

************************************************************************
